
GUB cover cuts applied:  2
Cover cuts applied:  14
Mixed integer rounding cuts applied:  1
Zero-half cuts applied:  15

Root node processing (before b&c):
  Real time             =    0.54 sec. (370.91 ticks)
Parallel b&c, 4 threads:
  Real time             =    0.04 sec. (42.46 ticks)
  Sync time (average)   =    0.01 sec.
  Wait time (average)   =    0.00 sec.
                          ------------
Total (root+branch&cut) =    0.59 sec. (413.36 ticks)
Version identifier: 12.10.0.0 | 2019-11-26 | 843d4de
CPXPARAM_MIP_Interval                            10
CPXPARAM_MIP_Tolerances_AbsMIPGap                0.98999999999999999
Tried aggregator 2 times.
MIP Presolve eliminated 24957 rows and 24996 columns.
MIP Presolve modified 1 coefficients.
Aggregator did 81 substitutions.
Reduced MIP has 3699 rows, 2853 columns, and 11431 nonzeros.
Reduced MIP has 2853 binaries, 0 generals, 0 SOSs, and 0 indicators.
Presolve time = 0.04 sec. (36.31 ticks)
Probing fixed 32 vars, tightened 0 bounds.
Probing changed sense of 68 constraints.
Probing time = 0.01 sec. (4.20 ticks)
Tried aggregator 2 times.
Detecting symmetries...
MIP Presolve eliminated 247 rows and 180 columns.
Aggregator did 32 substitutions.
Reduced MIP has 3420 rows, 2641 columns, and 10557 nonzeros.
Reduced MIP has 2641 binaries, 0 generals, 0 SOSs, and 0 indicators.
Presolve time = 0.02 sec. (16.21 ticks)
Probing time = 0.01 sec. (3.30 ticks)
Clique table members: 7314.
MIP emphasis: balance optimality and feasibility.
MIP search method: dynamic search.
Parallel mode: deterministic, using up to 4 threads.
Root relaxation solution time = 0.04 sec. (44.43 ticks)

        Nodes                                         Cuts/
   Node  Left     Objective  IInf  Best Integer    Best Bound    ItCnt     Gap

      0     0       19.3333   508                     19.3333      674         
*     0+    0                           18.0000       19.3333             7.41%
      0     0       19.3333   508       18.0000      Cuts: 42     1093    7.41%
      0     0       19.2673   508       18.0000       Cuts: 6     1993    7.04%
      0     0       19.2197   508       18.0000      Cuts: 67     2243    6.78%
      0     0       19.0403   508       18.0000     Cuts: 212     2630    5.78%
      0     0        cutoff             18.0000                   2838     --- 
Elapsed time = 0.54 sec. (496.08 ticks, tree = 0.01 MB, solutions = 1)
the number of Nodes = 0
